
Gurobi 11.0.3 (mac64[arm], gurobi_cl) logging started Wed Sep  4 13:48:30 2024

Set parameter LogFile to value "gurobi.log"
Using license file ~/gurobi.lic

Gurobi 11.0.3 (mac64[arm], gurobi_cl) logging started Wed Sep  4 13:50:26 2024

Set parameter LogFile to value "gurobi.log"
Using license file ~/gurobi.lic

Gurobi 11.0.3 (mac64[arm], gurobi_cl) logging started Wed Sep  4 13:52:32 2024

Set parameter Username
Set parameter LogFile to value "gurobi.log"
Using license file /Users/dingyue/gurobi.lic
Academic license - for non-commercial use only - expires 2025-09-04
